0 0 0 0
0 1 0 0
0 2 0 0
0 3 0 0
0 4 0 6
0 5 0 1
0 6 0 11
0 7 0 6
0 8 0 52
0 9 0 10
0 10 0 32
0 11 0 14
0 12 0 30
0 13 0 21
0 14 0 46
0 15 0 29
0 16 0 1
0 17 0 26
0 18 0 40
0 19 0 10
0 20 0 56
0 21 0 98
0 22 0 6
0 23 0 27
0 24 0 29
0 25 0 64
0 26 0 64
0 27 0 69
0 28 0 21
0 29 0 84
0 30 0 13
0 31 0 29
0 32 0 42
0 33 0 16
0 34 0 11
0 35 0 69
0 36 0 14
0 37 0 21
0 38 0 39
0 39 0 42
0 40 0 13
0 41 0 48
0 42 0 37
0 43 0 46
0 44 0 36
0 45 0 33
0 46 0 57
0 47 0 87
0 48 0 23
0 49 0 57
0 50 0 40
0 51 0 73
0 52 0 23
0 53 0 54
0 54 0 48
0 55 0 75
0 56 0 75
0 57 0 91
0 58 0 109
0 59 0 36
0 60 0 80
0 61 0 79
0 62 0 67
0 63 0 61
0 64 0 79
0 65 0 38
0 66 0 107
0 67 0 38
0 68 0 52
0 69 0 87
0 70 0 93
0 71 0 67
0 72 0 69
0 73 0 100
0 74 0 98
0 75 0 83
0 76 0 70
0 77 0 107
0 78 0 78
0 79 0 79
0 80 0 100
0 81 0 91
0 82 0 95
0 83 0 105
0 84 0 110
0 85 0 100
0 86 0 114
0 87 0 110
0 88 0 116
0 89 0 116
0 90 0 114
0 91 0 118
